language Essence 1.3
letting nnodes be 13
letting nrings be 7
letting capacity be 5
letting demand be {{1, 2},
{1, 3},
{1, 4},
{1, 10},
{1, 11},
{1, 12},
{2, 7},
{2, 8},
{3, 4},
{3, 6},
{3, 9},
{3, 10},
{3, 12},
{3, 13},
{5, 6},
{5, 7},
{6, 7},
{6, 8},
{6, 12},
{7, 12},
{8, 11},
{8, 13},
{9, 11},
{11, 13}}
